(set-logic QF_S)
(declare-fun var_0xINPUT_71705 () String)
(assert (and (= (len var_0xINPUT_71705) 0) (= (len var_0xINPUT_71705) 0) (not (= var_0xINPUT_71705 "A9jaaDKZbG"))))
(check-sat var_0xINPUT_71705)